\Generated by Cardinal Operations

Maximize
   x(I,A1,B1) + x(I,A1,B2) + x(I,A1,B3) + x(I,A2,B1) + x(I,A2,B2) 
   + x(I,A2,B3) + 1.65 x(II,A1,B1) + 1.65 x(II,A2,B1) + 2.3 x(III,A2,B2) 
   - 300 y(A1) - 321 y(A2) - 250 y(B1) - 783 y(B2) - 200 y(B3) 
Subject To
 capacity_A_A1: 5 x(I,A1,B1) + 5 x(I,A1,B2) + 5 x(I,A1,B3) + 10 x(II,A1,B1) 
   <= 6000
 capacity_A_A2: 7 x(I,A2,B1) + 7 x(I,A2,B2) + 7 x(I,A2,B3) + 9 x(II,A2,B1) 
   + 12 x(III,A2,B2) <= 10000
 capacity_B_B1: 6 x(I,A1,B1) + 6 x(I,A2,B1) + 8 x(II,A1,B1) + 8 x(II,A2,B1) 
   <= 4000
 capacity_B_B2: 4 x(I,A1,B2) + 4 x(I,A2,B2) + 11 x(III,A2,B2) <= 7000
 capacity_B_B3: 7 x(I,A1,B3) + 7 x(I,A2,B3) <= 4000
 activation_A_A1: x(I,A1,B1) + x(I,A1,B2) + x(I,A1,B3) + x(II,A1,B1) 
   - 1200 y(A1) <= 0
 activation_A_A2: x(I,A2,B1) + x(I,A2,B2) + x(I,A2,B3) + x(II,A2,B1) 
   + x(III,A2,B2) - 1428.571428571429 y(A2) <= 0
 activation_B_B1: x(I,A1,B1) + x(I,A2,B1) + x(II,A1,B1) + x(II,A2,B1) 
   - 666.6666666666666 y(B1) <= 0
 activation_B_B2: x(I,A1,B2) + x(I,A2,B2) + x(III,A2,B2) - 1750 y(B2) <= 0
 activation_B_B3: x(I,A1,B3) + x(I,A2,B3) - 571.4285714285714 y(B3) <= 0
Binaries
 y(A1)  y(A2)  y(B1)  y(B2)  y(B3)  
END

